p cnf 10 50
3 -2 7 0
1 -3 -10 0
-7 5 4 0
-8 4 -7 0
-9 8 10 0
-8 7 -9 0
9 -7 -10 0
10 6 -3 0
-2 7 -10 0
-8 -5 7 0
10 7 -9 0
5 -8 4 0
-6 -1 2 0
5 -6 -3 0
-3 -1 -6 0
-2 1 5 0
4 7 8 0
-6 -5 -3 0
4 -9 -6 0
5 -3 -7 0
1 5 8 0
-7 9 10 0
3 8 5 0
10 -3 8 0
7 -10 -8 0
-4 1 -8 0
-3 -2 -10 0
5 -1 7 0
9 4 -5 0
10 7 4 0
-1 -4 10 0
-6 1 9 0
-2 -3 6 0
-3 -2 4 0
2 7 1 0
-10 1 4 0
3 -10 8 0
-1 9 6 0
4 8 -9 0
-7 -1 3 0
-5 -7 3 0
-6 -10 -2 0
-3 -1 4 0
-6 -10 2 0
-9 -5 -1 0
8 -5 -7 0
4 10 1 0
-3 -9 -8 0
-8 -3 5 0
7 -4 2 0